% File represents an instance of a Composite Structure problem to be solved by a CP framework
% Created on 2025-03-26 10:41:16.762
T = 58;
n = 9;
m = 12;
edges = [(2, 1),
(5, 4),
(8, 7),
(2, 3),
(5, 6),
(8, 9),
(4, 1),
(7, 4),
(5, 2),
(8, 5),
(6, 3),
(9, 6)];
counts = [|6, 22, 6, 14,
|6, 22, 6, 18,
|6, 22, 6, 12,
|6, 22, 6, 18,
|6, 22, 6, 20,
|6, 22, 6, 16,
|6, 22, 6, 20,
|8, 22, 8, 20,
|6, 22, 6, 20|];
